c ---- [ banner ] ------------------------------------------------------------
c
c KISSAT SAT Solver
c Copyright (c) 2019-2021 Armin Biere JKU Linz
c 
c Version 2.0.1 02cd69626a53e93e09286b1978ccb5d6bec58b8e
c Apple clang version 13.1.6 (clang-1316.0.21.2) -W -Wall -O3 -DNDEBUG
c Thu Mar 31 15:34:51 EDT 2022 Darwin Randals-Macbook-Pro.local 21.2.0 arm64
c
c ---- [ proving ] -----------------------------------------------------------
c
c opened and writing proof to DRAT file:
c
c   chew-30-123456.drat
c
c ---- [ parsing ] -----------------------------------------------------------
c
c opened and reading DIMACS file:
c
c   chew-30-123456.cnf
c
c parsed 'p cnf 84 224' header
c closing input after reading 2741 bytes (3 KB)
c finished parsing after 0.00 seconds
c
c ---- [ options ] -----------------------------------------------------------
c
c --stable=0                       (different from default '1')
c
c ---- [ solving ] -----------------------------------------------------------
c
c  seconds switched rate      trail  variables
c         MB reductions conflicts glue   remaining
c          level restarts redundant irredundant
c
c *  0.00  0 0 0 0  0 0   0   0 0% 0 224 84 99%
c {  0.00  0 0 0 0  0 0   0   0 0% 0 224 84 99%
c -  0.00  0 25 0 1  0 1 300  41 92% 21 224 84 99%
c -  0.01  0 23 0 2  0 1 1301  50 87% 22 224 84 99%
c -  0.02  0 23 0 3  0 1 2715  27 86% 21 224 84 99%
c e  0.02  0 23 0 3  0 1 2807  59 86% 21 208 55 65%
c e  0.02  0 23 0 3  0 1 2807  59 86% 21 208 53 62%
c -  0.03  0 23 0 4  0 1 4447 188 90% 19 208 53 62%
c ^  0.03  0 22 0 4  0 1 5541 497 85% 18 208 53 62%
c -  0.04  0 21 0 5  0 1 6447 316 82% 17 208 53 62%
c -  0.05  0 20 0 6  0 1 8683 350 76% 16 208 53 62%
c u  0.06  0 19 0 6  0 1 10102 826 73% 15 208 53 62%
c -  0.06  0 18 0 7  0 1 11133 460 71% 14 208 53 62%
c ^  0.06  0 18 0 7  0 1 11470 579 71% 14 208 53 62%
c -  0.08  0 18 0 8  0 1 13779 689 67% 13 208 53 62%
c u  0.08  0 18 0 8  0 1 13959 725 67% 13 208 53 62%
c -  0.09  0 17 0 9  0 1 16607 746 65% 13 208 53 62%
c u  0.10  0 17 0 9  0 1 18625 1304 64% 12 208 53 62%
c -  0.11  0 16 0 10  0 1 19607 681 64% 12 208 53 62%
c ^  0.11  0 16 0 10  0 1 21017 1218 63% 12 208 53 62%
c
c  seconds  switched  rate         trail   variables
c         MB  reductions conflicts     glue    remaining
c          level  restarts   redundant irredundant
c
c -  0.12  0 16 0 11  0 1 22769 943 62% 12 208 53 62%
c u  0.13  0 16 0 11  0 1 24017 1413 62% 11 208 53 62%
c -  0.14  0 16 0 12  0 1 26085 1093 62% 11 208 53 62%
c -  0.16  0 15 0 13  0 1 29550 1124 61% 11 208 53 62%
c u  0.16  0 15 0 13  0 1 30330 1206 61% 11 208 53 62%
c -  0.18  0 15 0 14  0 1 33156 956 60% 11 208 53 62%
c e  0.18  0 15 0 14  0 1 34584 1404 60% 10 216 51 60%
c ^  0.18  0 15 0 14  0 1 34584 1404 60% 10 216 51 60%
c -  0.20  0 15 0 15  0 1 36898 1078 60% 10 216 51 60%
c u  0.20  0 15 0 15  0 1 37326 684 60% 10 216 51 60%
c -  0.22  0 15 0 16 553 1 40771 837 60% 10 216 51 60%
c -  0.23  0 15 0 17 553 1 44772 1074 61% 10 216 51 60%
c u  0.24  0 15 0 17 553 1 45301 1147 61% 10 216 51 60%
c -  0.26  0 15 0 18 703 1 48897 1662 60% 10 216 51 60%
c ^  0.27  0 15 0 18 1810 2 52784 2736 60% 10 216 51 60%
c -  0.28  0 15 0 19 1901 2 53141 1510 60% 10 216 51 60%
c u  0.28  0 15 0 19 2148 2 54133 1735 60% 10 216 51 60%
c -  0.30  0 15 0 20 3017 2 57500 1233 59% 10 216 51 60%
c -  0.32  0 15 0 21 3022 2 61973 1178 60% 10 216 51 60%
c u  0.33  0 15 0 21 3022 2 63857 1571 60% 10 216 51 60%
c
c  seconds  switched    rate          trail   variables
c         MB  reductions  conflicts       glue    remaining
c          level   restarts    redundant  irredundant
c
c -  0.35  0 15 0 22 3720 2 66555 1203 59% 10 216 51 60%
c -  0.37  0 16 0 23 3977 2 71246 1137 60% 10 216 51 60%
c u  0.38  0 16 0 23 3977 2 74445 1855 60% 10 216 51 60%
c e  0.39  0 16 0 23 4106 2 75779 2232 60% 10 392 40 47%
c !  0.39  0 16 0 23 4106 2 75779 2232 60% 10 392 40 47%
c -  0.40  0 16 0 24 4186 2 76042  31 60% 10 392 40 47%
c -  0.42  0 16 0 25 4306 2 80942 647 61% 10 392 40 47%
c u  0.44  0 16 0 25 4306 2 85919 2769 61% 10 392 40 47%
c -  0.45  0 16 0 26 4306 2 85945 932 61% 10 392 40 47%
c -  0.47  0 16 0 27 5800 2 91046 1071 62% 10 392 40 47%
c -  0.50  0 16 0 28 7338 2 96243 992 62% 11 392 40 47%
c u  0.52  0 16 0 28 8709 3 101085 2864 62% 11 392 40 47%
c -  0.53  0 17 0 29 8845 3 101535 981 62% 11 392 40 47%
c -  0.56  0 17 0 30 10265 3 106921 1013 62% 11 392 40 47%
c -  0.59  0 17 0 31 11215 3 112400 950 63% 11 392 40 47%
c -  0.62  0 17 0 32 12180 3 117969 915 63% 11 392 40 47%
c -  0.65  0 17 0 33 13174 3 123625 934 63% 11 392 40 47%
c -  0.68  0 18 0 34 14165 3 129370 979 63% 12 392 40 47%
c -  0.71  0 18 0 35 15168 4 135200 989 64% 12 392 40 47%
c -  0.75  0 18 0 36 16203 4 141117 990 64% 12 392 40 47%
c
c  seconds  switched     rate           trail   variables
c         MB  reductions   conflicts        glue    remaining
c          level   restarts      redundant  irredundant
c
c -  0.78  0 18 0 37 17232 4 147117 1018 64% 12 392 40 47%
c -  0.81  0 18 0 38 18277 4 153199 1030 64% 12 392 40 47%
c u  0.81  0 18 0 38 18330 4 153514 1162 64% 12 392 40 47%
c -  0.84  0 18 0 39 18483 4 159363 1264 65% 12 392 40 47%
c -  0.87  0 18 0 40 18483 4 165609 2006 65% 12 392 40 47%
c -  0.91  0 18 0 41 18483 3 171935 2912 65% 12 392 40 47%
c u  0.91  0 18 0 41 18483 3 173395 3414 65% 12 392 40 47%
c v  0.92  0 18 0 41 18483 3 173396 3413 65% 12 392 40 47%
c -  0.94  0 18 0 42 18518 3 178338 2824 66% 12 392 40 47%
c -  0.98  0 18 0 43 18527 3 184820 2001 66% 12 392 40 47%
c -  1.02  0 18 0 44 19222 3 191380 1627 66% 12 392 40 47%
c u  1.03  0 18 0 44 19757 3 194466 2876 66% 12 392 40 47%
c -  1.06  0 18 0 45 20376 3 198014 1593 66% 12 392 40 47%
c -  1.09  0 18 0 46 21540 3 204724 1410 66% 12 392 40 47%
c -  1.13  0 18 0 47 22709 4 211506 1324 66% 12 392 40 47%
c u  1.16  0 18 0 47 23364 4 216722 3532 66% 12 392 40 47%
c -  1.17  0 18 0 48 23364 4 218363 1380 66% 12 392 40 47%
c -  1.21  0 18 0 49 23364 3 225291 1588 66% 12 392 40 47%
c -  1.24  0 18 0 50 23364 3 232292 1727 66% 12 392 40 47%
c -  1.29  0 17 0 51 23364 3 239365 2065 66% 12 392 40 47%
c
c  seconds  switched     rate           trail   variables
c         MB  reductions   conflicts        glue    remaining
c          level   restarts      redundant  irredundant
c
c u  1.29  0 17 0 51 23364 3 240255 2299 66% 12 392 40 47%
c -  1.33  0 17 0 52 23364 3 246507 2046 66% 11 392 40 47%
c -  1.37  0 17 0 53 23364 3 253719 2148 66% 11 392 40 47%
c -  1.41  0 17 0 54 23364 3 261001 2230 66% 11 392 40 47%
c u  1.43  0 17 0 54 23364 3 265095 3510 66% 11 392 40 47%
c v  1.43  0 17 0 54 23364 3 265095 3510 66% 11 392 40 47%
c -  1.45  0 17 0 55 23906 3 268351 2098 66% 11 392 40 47%
c -  1.49  0 17 0 56 25213 3 275767 1838 66% 11 392 40 47%
c -  1.53  0 17 0 57 26522 3 283250 1669 66% 12 392 40 47%
c -  1.58  0 18 0 58 27832 3 290800 1537 66% 12 392 40 47%
c u  1.58  0 18 0 58 27875 3 291070 1605 66% 12 392 40 47%
c -  1.62  0 18 0 59 29167 3 298416 1502 66% 12 392 40 47%
c -  1.67  0 18 0 60 30492 3 306097 1511 66% 12 392 40 47%
c -  1.71  0 18 0 61 31743 4 313842 1620 66% 12 392 40 47%
c u  1.73  0 18 0 61 31777 3 318309 3187 66% 12 392 40 47%
c -  1.75  0 18 0 62 31777 3 321653 2262 66% 12 392 40 47%
c -  1.79  0 18 0 63 31777 3 329529 2965 67% 12 392 40 47%
c -  1.83  0 18 0 64 31777 3 337468 3266 66% 12 392 40 47%
c -  1.87  0 17 0 65 31777 3 345469 3809 67% 12 392 40 47%
c u  1.88  0 17 0 65 31777 3 346971 4161 67% 12 392 40 47%
c
c  seconds  switched     rate           trail   variables
c         MB  reductions   conflicts        glue    remaining
c          level   restarts      redundant  irredundant
c
c v  1.88  0 17 0 65 31777 3 346972 4159 67% 12 392 40 47%
c -  1.92  0 17 0 66 31923 3 353532 3801 66% 11 392 40 47%
c -  1.97  0 17 0 67 33014 3 361656 3157 66% 12 392 40 47%
c -  2.02  0 17 0 68 33952 3 369842 2890 66% 12 392 40 47%
c u  2.05  0 17 0 68 33952 3 376820 4796 66% 12 392 40 47%
c v  2.05  0 17 0 68 33952 3 376820 4796 66% 12 392 40 47%
c -  2.07  0 17 0 69 33952 3 378091 2063 66% 12 392 40 47%
c -  2.11  0 17 0 70 33952 3 386398 2177 66% 11 392 40 47%
c -  2.15  0 17 0 71 33952 3 394764 2834 66% 11 392 40 47%
c -  2.19  0 17 0 72 33952 3 403190 3245 66% 11 392 40 47%
c u  2.21  0 17 0 72 33952 3 407988 4375 66% 11 392 40 47%
c -  2.24  0 17 0 73 33953 3 411676 3042 66% 11 392 40 47%
c -  2.28  0 17 0 74 34290 2 420222 3296 66% 11 392 40 47%
c -  2.33  0 17 0 75 35814 3 428826 3092 66% 11 392 40 47%
c -  2.38  0 17 0 76 37344 3 437489 2315 66% 11 392 40 47%
c u  2.40  0 17 0 76 37843 3 440407 3482 66% 11 392 40 47%
c v  2.40  0 17 0 76 37843 3 440407 3479 66% 11 392 40 47%
c -  2.44  0 17 0 77 38777 3 446208 2152 66% 11 392 40 47%
c -  2.49  0 17 0 78 39385 3 454983 2807 66% 11 392 40 47%
c -  2.54  0 17 0 79 40236 3 463814 2845 65% 11 392 40 47%
c
c  seconds  switched     rate           trail   variables
c         MB  reductions   conflicts        glue    remaining
c          level   restarts      redundant  irredundant
c
c -  2.60  0 17 0 80 40236 3 472702 2353 66% 11 392 40 47%
c u  2.62  0 17 0 80 40236 3 474433 2287 66% 11 392 40 47%
c v  2.62  0 17 0 80 40236 3 474436 2282 66% 11 392 40 47%
c -  2.67  0 16 0 81 40236 3 481646 2585 66% 11 392 40 47%
c -  2.73  0 16 0 82 40236 3 490646 3660 67% 11 392 40 47%
c -  2.80  0 16 0 83 40236 2 499701 5395 68% 10 392 40 47%
c -  2.88  0 15 0 84 40236 2 508811 5534 69% 10 392 40 47%
c u  2.90  0 15 0 84 40236 2 509770 1896 69% 10 392 40 47%
c v  2.90  0 15 0 84 40236 2 509772 1845 69% 10 392 40 47%
c -  2.95  0 15 0 85 40236 2 517977 2317 69% 10 392 40 47%
c -  3.01  0 15 0 86 40236 2 527196 2999 70% 10 392 40 47%
c -  3.07  0 15 0 87 40236 2 536470 4576 70% 10 392 40 47%
c -  3.14  0 14 0 88 40236 2 545797 4997 70% 9 392 40 47%
c u  3.16  0 14 0 88 40236 2 547181 2274 71% 9 392 40 47%
c v  3.16  0 14 0 88 40236 2 547199 2227 71% 9 392 40 47%
c -  3.21  0 14 0 89 40236 2 555177 3395 70% 9 392 40 47%
c i  3.23  0 14 0 89 40236 2 558185 3736 71% 9 392 39 46%
c -  3.26  0 14 0 90 40236 2 564611 1476 70% 9 392 39 46%
c -  3.30  0 14 0 91 40236 2 574099 3398 70% 9 392 39 46%
c -  3.36  0 14 0 92 41336 2 583638 4166 70% 9 360 39 46%
c
c  seconds  switched     rate           trail  variables
c         MB  reductions   conflicts       glue    remaining
c          level   restarts      redundant irredundant
c
c u  3.37  0 14 0 92 41502 2 585076 3920 69% 9 360 39 46%
c v  3.37  0 14 0 92 41502 2 585088 3906 69% 9 360 39 46%
c w  3.37  0 14 0 92 41502 2 585089 3906 69% 9 360 39 46%
c -  3.42  0 14 0 93 42467 2 593230 2944 69% 9 360 39 46%
c -  3.49  0 14 0 94 42467 2 602874 3292 68% 9 360 39 46%
c -  3.55  0 14 0 95 42467 2 612569 4600 69% 9 360 39 46%
c -  3.62  0 13 0 96 42467 2 622315 5661 69% 9 360 39 46%
c u  3.64  0 13 0 96 42467 2 623335 1304 69% 9 360 39 46%
c v  3.64  0 13 0 96 42467 2 623347 1213 69% 9 360 39 46%
c w  3.64  0 13 0 96 42467 2 623347 1213 69% 9 360 39 46%
c i  3.66  0 13 0 96 42467 2 626253 2070 69% 9 360 38 45%
c -  3.69  0 13 0 97 43468 2 632112 1232 69% 9 352 38 45%
c -  3.75  0 13 0 98 43872 2 641960 2477 68% 9 352 38 45%
c i  3.80  0 13 0 98 43873 2 650755 4636 67% 8 352 37 44%
c -  3.81  0 13 0 99 43873 2 651860 795 67% 8 352 37 44%
c -  3.85  0 13 0 100 43873 2 661809 3303 66% 8 352 37 44%
c u  3.86  0 13 0 100 43873 2 663003 2821 66% 8 312 37 44%
c v  3.86  0 13 0 100 43873 2 663020 2788 66% 8 312 37 44%
c w  3.86  0 13 0 100 43873 2 663020 2788 66% 8 309 37 44%
c e  3.87  0 13 0 100 43873 2 663756 2876 66% 8 325 36 42%
c
c  seconds  switched      rate           trail  variables
c         MB  reductions    conflicts       glue    remaining
c          level    restarts      redundant irredundant
c
c i  3.88  0 13 0 100 43873 2 666825 3181 66% 8 325 35 41%
c i  3.90  0 12 0 100 43873 2 671126 4559 65% 8 325 34 40%
c -  3.91  0 12 0 101 43873 2 671809 2276 65% 8 277 34 40%
c i  3.92  0 12 0 101 43873 2 672485 2377 65% 8 277 33 39%
c i  3.92  0 12 0 101 43873 2 674020 2815 65% 8 277 32 38%
c i  3.92  0 12 0 101 43873 2 674158 2828 65% 8 277 31 36%
c i  3.92  0 12 0 101 43873 2 674177 2833 65% 8 277 30 35%
c }  3.92  0 12 0 101 43873 2 674180 2834 65% 8 277 19 22%
c 0  3.92  0 12 0 101 43873 2 674180 2834 65% 8 277 19 22%
c
c ---- [ result ] ------------------------------------------------------------
c
s UNSATISFIABLE
c
c ---- [ profiling ] ---------------------------------------------------------
c
c           3.77   96.15 %  search
c           3.77   96.15 %  focused
c           0.43   11.02 %  reduce
c           0.15    3.84 %  simplify
c           0.14    3.60 %  probe
c           0.11    2.71 %  vivify
c           0.02    0.54 %  sweep
c           0.01    0.28 %  substitute
c           0.01    0.24 %  eliminate
c           0.00    0.03 %  transitive
c           0.00    0.01 %  failed
c           0.00    0.01 %  subsume
c           0.00    0.01 %  ternary
c           0.00    0.01 %  backbone
c           0.00    0.00 %  parse
c =============================================
c           3.92  100.00 %  total
c
c ---- [ statistics ] --------------------------------------------------------
c
c clauses_learned:                     447729               66 %  conflicts
c conflicts:                           674180           171787.53 per second
c decisions:                          1306923                1.94 per conflict
c forward_strengthened:                    22                1 %  strengthened
c kitten_conflicts:                      5976                1.05 per solved
c kitten_decisions:                    131708               23.19 per solved
c kitten_propagations:                 187545               33.02 per solved
c kitten_sat:                            5553               98 %  solved
c kitten_solved:                         5680 
c kitten_ticks:                       1334878                7.12 per propagation
c kitten_unknown:                          36                1 %  solved
c kitten_unsat:                            91                2 %  solved
c literals_bumped:                   13020472               29.08 per clause
c literals_deduced:                   7017203               15.67 per clause
c literals_learned:                   5716893               12.77 per clause
c literals_minimized:                       0                0 %  deduced
c literals_minimize_shrunken:           63969                5 %  shrunken
c literals_shrunken:                  1300320               19 %  deduced
c propagations:                       3825478           974768    per second
c reductions:                             101             6675    interval
c restarts:                             43873               15.37 interval
c restarts_reused_trails:               30042               68 %  restarts
c strengthened:                          1916                2 %  checks
c subsumption_checks:                   78352 
c subsumed:                            214009              273 %  checks
c sweep:                                   37            18221    interval
c sweep_completed:                         11                3    sweeps
c sweep_equivalences:                       0                0    variables
c sweep_sat:                             5552               99 %  sweep_solved
c sweep_solved:                          5589               98 %  kitten_solved
c sweep_units:                              0                0 %  variables
c sweep_unsat:                              1                0 %  sweep_solved
c sweep_variables:                        378              445 %  variables
c
c ---- [ proof ] -------------------------------------------------------------
c
c proof_added:                         606976               50 %  per line
c proof_bytes:                       58602212               56 MB 
c proof_deleted:                       604068               50 %  per line
c
c ---- [ resources ] ---------------------------------------------------------
c
c maximum-resident-set-size:       7012876288 bytes       6688 MB
c process-time:                             4s               3.92 seconds
c
c ---- [ shutting down ] -----------------------------------------------------
c
c exit 20
-rw-r--r--  1 bryant  staff  58602212 Mar 11 02:57 chew-30-123456.drat
c parsing input formula with 84 variables and 224 clauses
c finished parsing
c detected empty clause; start verification via backward checking
c 224 of 224 clauses in core                            
c 312711 of 606977 lemmas in core using 2858303 resolution steps
c 0 RAT lemmas in core; 203 redundant literals in core lemmas
s VERIFIED
c verification time: 2.770 seconds
